10 45
1 2 5
1 3 11
1 4 12
1 5 8
1 6 9
1 7 11
1 8 5
1 9 15
1 10 0
2 3 16
2 4 1
2 5 12
2 6 7
2 7 13
2 8 28
2 9 6
2 10 25
3 4 18
3 5 20
3 6 5
3 7 18
3 8 20
3 9 11
3 10 28
4 5 10
4 6 28
4 7 29
4 8 14
4 9 18
4 10 4
5 6 23
5 7 23
5 8 9
5 9 17
5 10 23
6 7 0
6 8 22
6 9 13
6 10 9
7 8 9
7 9 7
7 10 29
8 9 22
8 10 25
9 10 1
